
  17    4
  10   10   10   10

   0   0   0   0   0   4 2 3 4 6 
   1  10  10  10  10   4 11 10 9 7 
  10  10  10  10  10   2 8 5 
  10  10  10  10  10   3 11 9 8 
   4  10  10  10  10   3 16 13 11 
   6  10  10  10  10   2 11 7 
   7  10  10  10  10   2 13 12 
   4  10  10  10  10   3 16 15 14 
   4  10  10  10  10   2 15 12 
   7  10  10  10  10   2 14 13 
   9  10  10  10  10   1 12 
   4  10  10  10  10   1 14 
   9  10  10  10  10   1 15 
  10  10  10  10  10   1 17
   2  10  10  10  10   1 17
   2  10  10  10  10   1 17
   0   0   0   0   0   0 
